N = 6;
H = 5;
T = 2;

avail = array3d(1..N, 1..H, 1..T, [7, 7, 6, 4, 8, 2, 2, 5, 8, 2, 4, 7, 8, 10, 1, 2, 9, 4, 2, 3, 7, 8, 4, 9, 0, 0, 7, 0, 2, 10, 7, 3, 6, 0, 6, 1, 1, 3, 8, 7, 1, 10, 5, 10, 10, 6, 5, 2, 7, 8, 9, 0, 1, 0, 2, 7, 6, 1, 8, 1]);

r = array2d(1..H, 1..T, [1, 1, 3, 1, 2, 1, 1, 3, 0, 1]);
